50
120 120
1 83 353
2 82 296
3 79 775
4 78 417
5 75 820
6 72 552
7 71 778
8 71 113
9 71 808
10 67 50
11 67 110
12 66 723
13 65 129
14 65 702
15 64 326
16 63 639
17 63 617
18 62 702
19 61 889
20 61 472
21 60 609
22 60 500
23 60 351
24 58 950
25 58 247
26 57 376
27 56 396
28 56 45
29 56 93
30 56 184
31 55 68
32 53 687
33 53 349
34 51 248
35 51 640
36 48 587
37 44 384
38 43 792
39 42 832
40 42 431
41 37 854
42 37 959
43 35 78
44 32 335
45 32 912
46 30 579
47 29 959
48 27 600
49 27 892
50 24 21
